c uprop, v00.0, 
c reading from data/prog297.c.cnf
c done reading: 0.003068
p cnf 86 321
-38 -49 0
38 49 0
-51 -56 0
51 56 0
-43 -58 0
43 58 0
-32 -60 0
32 60 0
38 -62 0
-38 62 0
51 -64 0
-51 64 0
-38 57 -58 0
57 -58 0
-38 57 0
38 -57 58 0
-57 58 -66 0
38 -57 -66 0
57 -58 66 0
-38 57 66 0
57 66 0
-38 -58 66 0
-32 45 -51 0
-32 45 -57 0
45 -51 -57 0
32 -45 51 0
32 -45 57 0
-45 51 57 0
32 -37 -45 0
-37 -45 51 0
-37 -45 57 0
-32 37 45 0
37 45 -51 0
37 45 -57 0
-32 37 -51 -57 0
32 -37 51 57 0
-36 58 0
-36 45 0
36 -45 -58 0
-35 -45 -58 0
-35 45 58 0
35 45 -58 0
35 -45 58 0
32 -34 0
-34 36 0
-32 34 -36 0
-32 -33 -36 0
32 -33 36 0
-32 33 36 0
32 33 -36 0
-39 62 0
39 -62 0
52 -64 0
-52 64 0
-52 -59 64 0
-52 -59 0
52 59 -64 0
52 59 0
30 -66 0
30 -52 -66 0
30 -52 0
-30 52 66 0
-28 -30 66 0
-28 -30 52 0
28 30 -66 0
28 30 0
28 30 -52 0
28 -52 -66 0
-37 46 0
-30 -37 46 0
-30 46 0
30 37 -46 0
-26 37 -46 0
-26 30 -46 0
26 -37 46 0
26 46 0
26 -30 46 0
26 -30 -37 0
-35 -38 53 0
-35 -46 53 0
-38 -46 53 0
35 38 -53 0
35 46 -53 0
38 46 -53 0
-24 35 -53 0
-24 38 -53 0
-24 46 -53 0
24 -35 53 0
24 -38 53 0
24 -46 53 0
24 -35 -38 -46 0
-24 35 38 46 0
-33 40 -51 0
-33 40 -53 0
40 -51 -53 0
33 -40 51 0
33 -40 53 0
-40 51 53 0
-23 33 -40 0
-23 -40 51 0
-23 -40 53 0
23 -33 40 0
23 40 -51 0
23 40 -53 0
23 -33 -51 -53 0
-23 33 51 53 0
-34 -58 67 0
-34 -40 67 0
-40 -58 67 0
34 58 -67 0
34 40 -67 0
40 58 -67 0
34 -67 -68 0
58 -67 -68 0
40 -67 -68 0
-34 67 68 0
-58 67 68 0
-40 67 68 0
-34 -40 -58 68 0
34 40 58 -68 0
32 -69 0
67 -69 0
-32 -67 69 0
-32 -67 -70 0
32 67 -70 0
-32 67 70 0
32 -67 70 0
-39 -71 0
39 71 0
-59 -72 0
59 72 0
-28 -73 0
28 73 0
-26 -74 0
26 74 0
-24 -75 0
24 75 0
-23 -76 0
23 76 0
-68 -77 0
68 77 0
-70 -78 0
70 78 0
-69 -79 0
69 79 0
-29 -44 0
-44 -48 0
29 44 48 0
29 48 -80 0
-29 -48 -80 0
-29 48 80 0
29 -48 80 0
44 -61 0
-27 -61 0
27 -44 61 0
27 -44 -81 0
-27 44 -81 0
27 44 81 0
-27 -44 81 0
61 -82 0
-55 -82 0
55 -61 82 0
55 -61 -83 0
-55 61 -83 0
55 61 83 0
-55 -61 83 0
82 -84 0
-25 -84 0
25 -82 84 0
25 -82 -85 0
-25 82 -85 0
25 82 85 0
-25 -82 85 0
-63 84 0
-42 -63 0
42 63 -84 0
42 -84 -86 0
-42 84 -86 0
42 84 86 0
-42 -84 86 0
63 -65 0
-22 -65 0
22 -63 65 0
-21 22 -63 0
-21 -22 63 0
21 22 63 0
21 -22 -63 0
-20 65 0
-19 -20 0
19 20 -65 0
-17 19 -65 0
-17 -19 65 0
17 19 65 0
17 -19 -65 0
-16 -29 0
-16 -48 0
16 29 48 0
-15 29 48 0
-15 -29 -48 0
15 -29 48 0
15 29 -48 0
-14 16 0
-14 -27 0
14 -16 27 0
-13 -16 27 0
-13 16 -27 0
13 16 27 0
13 -16 -27 0
-12 14 0
-12 -55 0
12 -14 55 0
-11 -14 55 0
-11 14 -55 0
11 14 55 0
11 -14 -55 0
-10 12 0
-10 -25 0
10 -12 25 0
-9 -12 25 0
-9 12 -25 0
9 12 25 0
9 -12 -25 0
-8 10 0
-8 -42 0
8 -10 42 0
-7 -10 42 0
-7 10 -42 0
7 10 42 0
7 -10 -42 0
-6 8 0
-6 -22 0
6 -8 22 0
-5 -8 22 0
-5 8 -22 0
5 8 22 0
5 -8 -22 0
-4 6 0
-4 -19 0
4 -6 19 0
-3 -6 19 0
-3 6 -19 0
3 6 19 0
3 -6 -19 0
-2 39 0
-2 29 0
2 -29 -39 0
29 -39 0
-29 39 0
-48 50 -59 0
-2 50 -59 0
-2 -48 50 0
48 -50 59 0
2 -50 59 0
2 48 -50 0
50 -59 0
-48 50 0
-2 50 0
-2 -48 -59 0
-27 -28 31 0
-28 31 -50 0
-27 31 -50 0
27 28 -31 0
28 -31 50 0
27 -31 50 0
-28 31 0
-27 31 0
31 -50 0
-27 -28 -50 0
-26 47 -55 0
-26 -31 47 0
-31 47 -55 0
26 -47 55 0
26 31 -47 0
31 -47 55 0
-26 47 0
47 -55 0
-31 47 0
-26 -31 -55 0
-24 -25 54 0
-24 -47 54 0
-25 -47 54 0
24 25 -54 0
24 47 -54 0
25 47 -54 0
-24 54 0
-25 54 0
-47 54 0
-24 -25 -47 0
-23 41 -42 0
-23 41 -54 0
41 -42 -54 0
23 -41 42 0
23 -41 54 0
-41 42 54 0
-23 41 0
41 -42 0
41 -54 0
-23 -42 -54 0
18 -22 -68 0
18 -41 -68 0
18 -22 -41 0
-18 22 68 0
-18 41 68 0
-18 22 41 0
18 -68 0
18 -22 0
18 -41 0
-22 -41 -68 0
1 -19 -70 0
1 -18 -70 0
1 -18 -19 0
-1 19 70 0
-1 18 70 0
-1 18 19 0
1 -70 0
1 -19 0
1 -18 0
-18 -19 -70 0
-1 -69 0
1 -69 0
-1 69 0
